************************************************************************
file with basedata            : J12059_.BAS
initial value random generator: 1119059725
************************************************************************
projects                      :  1
jobs (incl. supersource/sink ):  122
horizon                       :  601
RESOURCES
  - renewable                 :  4   R
  - nonrenewable              :  0   N
  - doubly constrained        :  0   D
************************************************************************
PROJECT INFORMATION:
pronr.  #jobs rel.date duedate tardcost  MPM-Time
    1    120      0      106        7      106
************************************************************************
PRECEDENCE RELATIONS:
jobnr.    #modes  #successors   successors
   1        1          3           2   3   4
   2        1          3           6  26  31
   3        1          3           5   8   9
   4        1          3           7  41  47
   5        1          1          91
   6        1          3          11  14  59
   7        1          3          10  12  14
   8        1          3          37  38  72
   9        1          3          27  57  83
  10        1          3          24  25  67
  11        1          1          13
  12        1          3          17  20  48
  13        1          3          15  16  34
  14        1          2          21  46
  15        1          3          23  55  58
  16        1          3          21  67  85
  17        1          3          18  19  32
  18        1          3          22  29 101
  19        1          3          27  43  78
  20        1          3          26  44 114
  21        1          3          28  30  35
  22        1          2          40  89
  23        1          3          42  50  65
  24        1          3          54  98 108
  25        1          3          46  52  71
  26        1          2          78 111
  27        1          1         103
  28        1          3          51  76  82
  29        1          3          36  61  80
  30        1          2          45  92
  31        1          3          59 105 115
  32        1          2          33  43
  33        1          3          39  44  57
  34        1          3          43  63  74
  35        1          3          61  77 101
  36        1          3          45  53  74
  37        1          3          64  86 111
  38        1          3          52  96  97
  39        1          3          42  45 106
  40        1          2          90 116
  41        1          2          63  81
  42        1          2          52  56
  43        1          3          69  70 117
  44        1          3          59  80 110
  45        1          3          60  95 121
  46        1          3          49  74  87
  47        1          2          62  84
  48        1          3          53  69 118
  49        1          3          51  79  94
  50        1          3          63  64  89
  51        1          3          56  61  75
  52        1          3          62  66  82
  53        1          3          66  77  79
  54        1          2          72  82
  55        1          2          75  81
  56        1          1          68
  57        1          3          65  70 105
  58        1          2          64  79
  59        1          1         111
  60        1          2          73  76
  61        1          3          65  68  90
  62        1          1         105
  63        1          3          71  93 112
  64        1          3          69  91  97
  65        1          3          86  92 120
  66        1          2          76 113
  67        1          3          73  87  99
  68        1          2          73  78
  69        1          1          77
  70        1          3          71  84  88
  71        1          2          72  86
  72        1          3          80  95 104
  73        1          2          81 100
  74        1          3          85  88  95
  75        1          2          90  93
  76        1          1         100
  77        1          2          83  87
  78        1          1         107
  79        1          3          83  84  85
  80        1          1         115
  81        1          1          96
  82        1          3          94  99 112
  83        1          1          88
  84        1          1          89
  85        1          1         117
  86        1          1         103
  87        1          2          94 106
  88        1          1          92
  89        1          2          91  98
  90        1          2          96  98
  91        1          2         102 103
  92        1          1         104
  93        1          2          97 107
  94        1          2         102 120
  95        1          2         100 110
  96        1          2         108 119
  97        1          2          99 110
  98        1          1         106
  99        1          2         101 117
 100        1          1         102
 101        1          1         115
 102        1          1         114
 103        1          1         104
 104        1          1         109
 105        1          1         107
 106        1          2         109 112
 107        1          2         108 109
 108        1          1         118
 109        1          1         113
 110        1          1         116
 111        1          2         113 119
 112        1          1         114
 113        1          1         121
 114        1          1         119
 115        1          1         116
 116        1          1         118
 117        1          1         121
 118        1          1         120
 119        1          1         122
 120        1          1         122
 121        1          1         122
 122        1          0        
************************************************************************
REQUESTS/DURATIONS:
jobnr. mode duration  R 1  R 2  R 3  R 4
------------------------------------------------------------------------
  1      1     0       0    0    0    0
  2      1     4       1    7   10   10
  3      1     1       7    9    7    5
  4      1     5       9    5   10    9
  5      1     5       3    2    6    3
  6      1     7       6    8    9    8
  7      1     2       7    7    8    5
  8      1    10       2    4    9    3
  9      1     7       8    8    3    2
 10      1    10       1    1    3    9
 11      1    10       1    1    8    5
 12      1     2       1    7    1    2
 13      1     8       5    8    4    5
 14      1     7       8    3    5    7
 15      1     7       1    8    6    6
 16      1     9       7    9    1    8
 17      1     4       6    9    5    6
 18      1     4       4    9    1    3
 19      1     1       7    8    2    9
 20      1     6       8    6    2    7
 21      1     2       6    7   10    3
 22      1     1       6    7    7    7
 23      1     6       9    9    8    5
 24      1     6       8   10   10    2
 25      1     2       6    4   10   10
 26      1    10       8    9    4    6
 27      1     2       3    1    7   10
 28      1     8       1    5    5   10
 29      1     9       7    9    7    9
 30      1     5       9    2    7    6
 31      1     3       5    6    5   10
 32      1     4       7    3    6    2
 33      1     9       3    2   10    9
 34      1     6       2    3   10    1
 35      1     4      10    2   10   10
 36      1     2       6    9    3    7
 37      1     1       9   10    1    5
 38      1     3       4    4    8    5
 39      1     8       3    6    4    3
 40      1     1       4   10    9    7
 41      1     2       8    6    2    1
 42      1     5       2    8    2    5
 43      1     1       9    4    9    6
 44      1     1      10    7    1    7
 45      1     1       7    3    9    5
 46      1     1       8    6    7    9
 47      1     8       3    3    4    8
 48      1     3       5    2   10    3
 49      1     8       7    3   10    4
 50      1     4       1    5    9    8
 51      1     5       8    9    7    5
 52      1     3       8    3    9    2
 53      1    10       6    5    5    2
 54      1     2       2    8    1    9
 55      1    10      10   10    5    6
 56      1     3       6    2    6    8
 57      1     7       3    4    8    4
 58      1     9       6   10    2    5
 59      1     2       1    6    5   10
 60      1     3      10    9    6   10
 61      1     4       2    7    5    7
 62      1     3       9    5    7    4
 63      1     5       4    5    2    3
 64      1     9      10    2    2    9
 65      1     7       5    5    2    3
 66      1     2       8    2    3    7
 67      1     2       5   10    9    2
 68      1    10       9    7    7    6
 69      1     6       1    9    1    6
 70      1     5       4    5    5    4
 71      1     8       2    8    3    9
 72      1     3       3    5    6    2
 73      1     3       2    9    8    5
 74      1    10       7    4    9    6
 75      1     6       2    3    2    3
 76      1     2       9    3    6    2
 77      1    10       5    2    2    4
 78      1    10       9    4    3    4
 79      1     6       2    6    8   10
 80      1     7       6    3    8    6
 81      1     9       5    3    6    2
 82      1     2       2    9    4    4
 83      1     8      10    7   10    8
 84      1     7       7    3    7    6
 85      1     1      10    6    3   10
 86      1     2       7    8    1    3
 87      1     6       7    5    8    8
 88      1     2       6    4    7    9
 89      1     1       9    2    3    5
 90      1     3       4    7    6   10
 91      1     6       7    3    1   10
 92      1    10      10    3    8    2
 93      1     3       6    7    6    4
 94      1     6       7    2    4    8
 95      1     3       6    6    4    1
 96      1     5       8    8    4    1
 97      1     6       2    7    7    8
 98      1    10       8    8    3    2
 99      1     3       9    1    1   10
100      1     6       4    9    4   10
101      1     7       7    4    8    4
102      1     1      10    6    3    4
103      1     6       2    6    4    9
104      1     5       3    4    8    7
105      1     5       7    4    3    5
106      1     4       4    3    2    9
107      1     6       2    3    1   10
108      1     2       3    2    4    9
109      1     6       6   10    7    2
110      1     6       1    7    3    1
111      1     5       6    8    6    6
112      1     4       8    8    8    3
113      1     1       6    7    1    7
114      1     9       2    3    4   10
115      1     3       7   10    1   10
116      1     9       9    1    8    3
117      1     3      10   10    1    8
118      1     2       4    9   10    3
119      1     3       3   10    7    6
120      1     5       2    6    7    5
121      1     3       7    9    1    5
122      1     0       0    0    0    0
************************************************************************
RESOURCEAVAILABILITIES:
  R 1  R 2  R 3  R 4
   31   31   30   28
************************************************************************
